
Gurobi 9.1.1 (win64) logging started Sun Mar 13 21:05:38 2022

Changed value of parameter LogFile to ./Log/Pattern_Appro_solver_1500_order_75_batch.log
   Prev:   Default: 
Gurobi Optimizer version 9.1.1 build v9.1.1rc0 (win64)
Thread count: 6 physical cores, 12 logical processors, using up to 12 threads
Optimize a model with 3935 rows, 23100 columns and 81375 nonzeros
Model fingerprint: 0x9f1b2f74
Variable types: 0 continuous, 23100 integer (17850 binary)
Coefficient statistics:
  Matrix range     [1e+00, 2e+01]
  Objective range  [1e+00, 4e+01]
  Bounds range     [1e+00, 1e+02]
  RHS range        [1e+00, 1e+02]
Found heuristic solution: objective 7754.0000000
Presolve removed 251 rows and 1056 columns
Presolve time: 0.11s
Presolved: 3684 rows, 22044 columns, 76606 nonzeros
Variable types: 0 continuous, 22044 integer (17007 binary)

Root relaxation: objective 1.989787e+03, 7221 iterations, 0.18 seconds

    Nodes    |    Current Node    |     Objective Bounds      |     Work
 Expl Unexpl |  Obj  Depth IntInf | Incumbent    BestBd   Gap | It/Node Time

     0     0 1989.78672    0  283 7754.00000 1989.78672  74.3%     -    0s
H    0     0                    4606.0000000 1989.78672  56.8%     -    0s
H    0     0                    4598.0000000 1989.78672  56.7%     -    0s
H    0     0                    4500.0000000 1989.78672  55.8%     -    1s
H    0     0                    4321.0000000 1989.78672  54.0%     -    1s
     0     0 2014.45268    0  471 4321.00000 2014.45268  53.4%     -    1s
H    0     0                    3934.0000000 2014.45268  48.8%     -    1s
     0     0 2044.66100    0  500 3934.00000 2044.66100  48.0%     -    2s
     0     0 2045.07443    0  506 3934.00000 2045.07443  48.0%     -    2s
     0     0 2045.47136    0  507 3934.00000 2045.47136  48.0%     -    2s
H    0     0                    3849.0000000 2045.47136  46.9%     -    2s
     0     0 2068.37085    0  630 3849.00000 2068.37085  46.3%     -    2s
     0     0 2093.70431    0  650 3849.00000 2093.70431  45.6%     -    3s
     0     0 2094.37045    0  665 3849.00000 2094.37045  45.6%     -    3s
     0     0 2094.47499    0  675 3849.00000 2094.47499  45.6%     -    3s
     0     0 2094.52592    0  684 3849.00000 2094.52592  45.6%     -    3s
     0     0 2094.54988    0  683 3849.00000 2094.54988  45.6%     -    3s
     0     0 2107.58977    0  801 3849.00000 2107.58977  45.2%     -    4s
H    0     0                    3769.0000000 2107.58977  44.1%     -    5s
H    0     0                    3725.0000000 2107.58977  43.4%     -    5s
     0     0 2110.46402    0  821 3725.00000 2110.46402  43.3%     -    5s
     0     0 2113.64221    0  815 3725.00000 2113.64221  43.3%     -    6s
     0     0 2114.40258    0  798 3725.00000 2114.40258  43.2%     -    6s
     0     0 2114.45494    0  818 3725.00000 2114.45494  43.2%     -    6s
H    0     0                    3673.0000000 2114.45494  42.4%     -    8s
     0     0 2124.22060    0  965 3673.00000 2124.22060  42.2%     -    8s
H    0     0                    3665.0000000 2124.22060  42.0%     -   10s
     0     0 2128.01569    0  923 3665.00000 2128.01569  41.9%     -   10s
     0     0 2128.72370    0 1035 3665.00000 2128.72370  41.9%     -   10s
H    0     0                    3655.0000000 2128.72370  41.8%     -   11s
     0     0 2128.91028    0 1023 3655.00000 2128.91028  41.8%     -   11s
     0     0 2128.94606    0 1012 3655.00000 2128.94606  41.8%     -   11s
H    0     0                    3648.0000000 2128.94606  41.6%     -   13s
     0     0 2133.37898    0 1126 3648.00000 2133.37898  41.5%     -   13s
H    0     0                    3626.0000000 2133.37898  41.2%     -   13s
H    0     0                    3615.0000000 2133.37898  41.0%     -   14s
     0     0 2134.65701    0 1122 3615.00000 2134.65701  41.0%     -   14s
     0     0 2134.82561    0 1122 3615.00000 2134.82561  40.9%     -   15s
     0     0 2136.02973    0 1129 3615.00000 2136.02973  40.9%     -   16s
     0     0 2136.07534    0 1150 3615.00000 2136.07534  40.9%     -   16s
     0     0 2137.95685    0 1236 3615.00000 2137.95685  40.9%     -   18s
     0     0 2138.65256    0 1316 3615.00000 2138.65256  40.8%     -   19s
     0     0 2139.02219    0 1280 3615.00000 2139.02219  40.8%     -   20s
H    0     0                    3574.0000000 2139.02219  40.2%     -   21s
H    0     0                    3536.0000000 2139.02219  39.5%     -   21s
     0     0 2139.23090    0 1268 3536.00000 2139.23090  39.5%     -   21s
     0     0 2139.55960    0 1214 3536.00000 2139.55960  39.5%     -   21s
     0     0 2139.57781    0 1189 3536.00000 2139.57781  39.5%     -   21s
H    0     0                    3529.0000000 2139.57781  39.4%     -   22s
     0     0 2141.83936    0 1219 3529.00000 2141.83936  39.3%     -   24s
     0     0 2143.67787    0 1238 3529.00000 2143.67787  39.3%     -   25s
     0     0 2144.29819    0 1268 3529.00000 2144.29819  39.2%     -   26s
     0     0 2144.41026    0 1326 3529.00000 2144.41026  39.2%     -   27s
H    0     0                    3507.0000000 2144.41026  38.9%     -   30s
     0     0 2148.11733    0 1386 3507.00000 2148.11733  38.7%     -   30s
H    0     0                    3503.0000000 2148.11733  38.7%     -   31s
     0     0 2148.50634    0 1447 3503.00000 2148.50634  38.7%     -   32s
     0     0 2148.60252    0 1463 3503.00000 2148.60252  38.7%     -   33s
H    0     0                    3501.0000000 2148.60252  38.6%     -   37s
     0     0 2150.99295    0 1410 3501.00000 2150.99295  38.6%     -   37s
H    0     0                    3417.0000000 2150.99295  37.1%     -   47s
     0     0 2151.58043    0 1559 3417.00000 2151.58043  37.0%     -   51s
     0     0 2152.33525    0 1581 3417.00000 2152.33525  37.0%     -   52s
     0     0 2152.41078    0 1611 3417.00000 2152.41078  37.0%     -   53s
     0     0 2154.52415    0 1673 3417.00000 2154.52415  36.9%     -   57s
     0     0 2155.67136    0 1797 3417.00000 2155.67136  36.9%     -   60s

Cutting planes:
  Gomory: 60
  Cover: 1824
  Implied bound: 291
  Clique: 221
  MIR: 127
  StrongCG: 18
  Flow cover: 284
  GUB cover: 8
  Zero half: 124
  Network: 5
  Relax-and-lift: 4

Explored 1 nodes (74191 simplex iterations) in 60.04 seconds
Thread count was 12 (of 12 available processors)

Solution count 10: 3417 3501 3503 ... 3648

Time limit reached
Best objective 3.417000000000e+03, best bound 2.156000000000e+03, gap 36.9037%

Gurobi 9.1.1 (win64) logging started Sat Apr 16 19:08:10 2022

Changed value of parameter LogFile to ./Log/Pattern_Appro_solver_1500_order_75_batch.log
   Prev:   Default: 
Gurobi Optimizer version 9.1.1 build v9.1.1rc0 (win64)
Thread count: 6 physical cores, 12 logical processors, using up to 12 threads
Optimize a model with 3937 rows, 23250 columns and 82425 nonzeros
Model fingerprint: 0x89133b90
Variable types: 0 continuous, 23250 integer (17625 binary)
Coefficient statistics:
  Matrix range     [1e+00, 2e+01]
  Objective range  [1e+00, 4e+01]
  Bounds range     [1e+00, 7e+01]
  RHS range        [1e+00, 7e+01]
Found heuristic solution: objective 8004.0000000
Presolve removed 246 rows and 978 columns
Presolve time: 0.09s
Presolved: 3691 rows, 22272 columns, 77969 nonzeros
Variable types: 0 continuous, 22272 integer (16787 binary)

Root relaxation: objective 2.002937e+03, 7230 iterations, 0.16 seconds

    Nodes    |    Current Node    |     Objective Bounds      |     Work
 Expl Unexpl |  Obj  Depth IntInf | Incumbent    BestBd   Gap | It/Node Time

     0     0 2002.93705    0  294 8004.00000 2002.93705  75.0%     -    0s
H    0     0                    4710.0000000 2002.93705  57.5%     -    0s
H    0     0                    4703.0000000 2002.93705  57.4%     -    0s
H    0     0                    4571.0000000 2002.93705  56.2%     -    0s
H    0     0                    4397.0000000 2002.93705  54.4%     -    1s
     0     0 2045.10631    0  478 4397.00000 2045.10631  53.5%     -    1s
H    0     0                    4016.0000000 2045.10631  49.1%     -    1s
H    0     0                    3978.0000000 2045.10631  48.6%     -    1s
     0     0 2058.66330    0  474 3978.00000 2058.66330  48.2%     -    1s
     0     0 2058.66330    0  502 3978.00000 2058.66330  48.2%     -    1s
     0     0 2065.04233    0  578 3978.00000 2065.04233  48.1%     -    2s
H    0     0                    3976.0000000 2065.04233  48.1%     -    2s
     0     0 2077.73108    0  625 3976.00000 2077.73108  47.7%     -    2s
     0     0 2089.37304    0  643 3976.00000 2089.37304  47.5%     -    3s
     0     0 2092.87955    0  634 3976.00000 2092.87955  47.4%     -    3s
     0     0 2094.14616    0  620 3976.00000 2094.14616  47.3%     -    3s
     0     0 2094.46193    0  631 3976.00000 2094.46193  47.3%     -    3s
     0     0 2094.46202    0  640 3976.00000 2094.46202  47.3%     -    3s
H    0     0                    3804.0000000 2094.46202  44.9%     -    3s
H    0     0                    3732.0000000 2094.46202  43.9%     -    4s
     0     0 2110.21779    0  755 3732.00000 2110.21779  43.5%     -    4s
H    0     0                    3729.0000000 2110.21779  43.4%     -    5s
     0     0 2116.90574    0  790 3729.00000 2116.90574  43.2%     -    5s
     0     0 2117.08769    0  804 3729.00000 2117.08769  43.2%     -    5s
H    0     0                    3685.0000000 2117.08769  42.5%     -    6s
     0     0 2117.28972    0  852 3685.00000 2117.28972  42.5%     -    6s
     0     0 2117.29893    0  847 3685.00000 2117.29893  42.5%     -    6s
H    0     0                    3663.0000000 2117.29893  42.2%     -    8s
     0     0 2123.20469    0  901 3663.00000 2123.20469  42.0%     -    8s
     0     0 2124.51886    0  949 3663.00000 2124.51886  42.0%     -    9s
     0     0 2125.76935    0 1018 3663.00000 2125.76935  42.0%     -   10s
     0     0 2126.17405    0 1001 3663.00000 2126.17405  42.0%     -   10s
H    0     0                    3592.0000000 2126.17405  40.8%     -   10s
     0     0 2126.54583    0  981 3592.00000 2126.54583  40.8%     -   10s
     0     0 2126.55648    0  989 3592.00000 2126.55648  40.8%     -   10s
H    0     0                    3585.0000000 2126.55648  40.7%     -   10s
H    0     0                    3583.0000000 2126.55648  40.6%     -   14s
     0     0 2143.86472    0  992 3583.00000 2143.86472  40.2%     -   14s
H    0     0                    3553.0000000 2143.86472  39.7%     -   14s
     0     0 2146.40117    0 1100 3553.00000 2146.40117  39.6%     -   15s
     0     0 2147.99804    0 1167 3553.00000 2147.99804  39.5%     -   16s
     0     0 2149.12975    0 1158 3553.00000 2149.12975  39.5%     -   16s
     0     0 2149.19056    0 1178 3553.00000 2149.19056  39.5%     -   16s
     0     0 2156.59854    0 1187 3553.00000 2156.59854  39.3%     -   18s
     0     0 2157.88561    0 1176 3553.00000 2157.88561  39.3%     -   18s
     0     0 2158.35696    0 1253 3553.00000 2158.35696  39.3%     -   19s
     0     0 2158.47088    0 1241 3553.00000 2158.47088  39.2%     -   20s
H    0     0                    3545.0000000 2158.47088  39.1%     -   22s
     0     0 2163.00548    0 1288 3545.00000 2163.00548  39.0%     -   22s
H    0     0                    3529.0000000 2163.00548  38.7%     -   23s
     0     0 2164.19680    0 1306 3529.00000 2164.19680  38.7%     -   24s
     0     0 2164.83982    0 1364 3529.00000 2164.83982  38.7%     -   25s
     0     0 2164.94938    0 1373 3529.00000 2164.94938  38.7%     -   25s
H    0     0                    3503.0000000 2164.94938  38.2%     -   27s
     0     0 2167.21992    0 1373 3503.00000 2167.21992  38.1%     -   27s
     0     0 2167.96047    0 1408 3503.00000 2167.96047  38.1%     -   29s
     0     0 2168.23746    0 1423 3503.00000 2168.23746  38.1%     -   30s
     0     0 2168.44389    0 1440 3503.00000 2168.44389  38.1%     -   31s
     0     0 2168.48718    0 1469 3503.00000 2168.48718  38.1%     -   32s
     0     0 2169.19573    0 1506 3503.00000 2169.19573  38.1%     -   34s
     0     0 2169.19573    0 1460 3503.00000 2169.19573  38.1%     -   35s
H    0     0                    3330.0000000 2169.19573  34.9%     -   56s
     0     2 2169.19573    0 1441 3330.00000 2169.19573  34.9%     -   56s
     1     3 2169.30032    1 1493 3330.00000 2169.19702  34.9%  1389   60s

Cutting planes:
  Gomory: 71
  Cover: 1576
  Implied bound: 288
  Clique: 166
  MIR: 54
  StrongCG: 6
  Flow cover: 178
  GUB cover: 5
  Zero half: 137
  Relax-and-lift: 3

Explored 2 nodes (69630 simplex iterations) in 60.02 seconds
Thread count was 12 (of 12 available processors)

Solution count 10: 3330 3503 3529 ... 3685

Time limit reached
Best objective 3.330000000000e+03, best bound 2.170000000000e+03, gap 34.8348%

Gurobi 9.5.1 (win64) logging started Tue Apr 19 10:45:10 2022

Set parameter LogFile to value "./Log/Pattern_Appro_solver_1500_order_75_batch.log"
Gurobi Optimizer version 9.5.1 build v9.5.1rc2 (win64)
Thread count: 6 physical cores, 12 logical processors, using up to 12 threads
Optimize a model with 4555 rows, 69600 columns and 365400 nonzeros
Model fingerprint: 0x4908e46f
Variable types: 0 continuous, 69600 integer (61050 binary)
Coefficient statistics:
  Matrix range     [1e+00, 2e+01]
  Objective range  [1e+00, 4e+01]
  Bounds range     [1e+00, 4e+01]
  RHS range        [1e+00, 4e+01]
Found heuristic solution: objective 23896.000000
Presolve removed 375 rows and 3004 columns
Presolve time: 0.45s
Presolved: 4180 rows, 66596 columns, 334901 nonzeros
Variable types: 0 continuous, 66596 integer (58382 binary)
Warning: Markowitz tolerance tightened to 0.03125

Root simplex log...

Iteration    Objective       Primal Inf.    Dual Inf.      Time
   23829    2.6910111e+03   3.711734e+05   0.000000e+00      5s
   42694    3.0588128e+03   3.892030e+04   0.000000e+00     10s
   60294    3.5044256e+03   2.883046e+03   0.000000e+00     15s
   65156    3.6097368e+03   0.000000e+00   0.000000e+00     16s

Root relaxation: objective 3.609737e+03, 65156 iterations, 15.25 seconds (16.52 work units)

    Nodes    |    Current Node    |     Objective Bounds      |     Work
 Expl Unexpl |  Obj  Depth IntInf | Incumbent    BestBd   Gap | It/Node Time

     0     0 3609.73684    0 1099 23896.0000 3609.73684  84.9%     -   16s
H    0     0                    14664.000000 3609.73684  75.4%     -   16s
H    0     0                    13405.000000 3609.73684  73.1%     -   24s
H    0     0                    13045.000000 3609.73684  72.3%     -   31s
H    0     0                    12918.000000 3609.73684  72.1%     -   33s
     0     0 3722.85950    0 1840 12918.0000 3722.85950  71.2%     -   33s
H    0     0                    11991.000000 3722.85950  69.0%     -   35s
     0     0 3735.19295    0 1873 11991.0000 3735.19295  68.9%     -   35s
     0     0 3735.53323    0 1902 11991.0000 3735.53323  68.8%     -   36s
     0     0 3735.57559    0 1897 11991.0000 3735.57559  68.8%     -   36s
     0     0 3735.57559    0 1901 11991.0000 3735.57559  68.8%     -   36s
     0     0 3801.90532    0 2546 11991.0000 3801.90532  68.3%     -   40s
H    0     0                    11680.000000 3819.76628  67.3%     -   43s
     0     0 3819.76628    0 2656 11680.0000 3819.76628  67.3%     -   43s
     0     0 3826.39540    0 2679 11680.0000 3826.39540  67.2%     -   44s
H    0     0                    11438.000000 3829.76847  66.5%     -   46s
     0     0 3829.76847    0 2605 11438.0000 3829.76847  66.5%     -   46s
     0     0 3829.93967    0 2637 11438.0000 3829.93967  66.5%     -   46s
     0     0 3830.17991    0 2714 11438.0000 3830.17991  66.5%     -   46s
     0     0 3830.20086    0 2621 11438.0000 3830.20086  66.5%     -   47s
H    0     0                    11257.000000 3871.26548  65.6%     -   55s
H    0     0                    11145.000000 3871.26548  65.3%     -   55s
     0     0 3871.26548    0 3383 11145.0000 3871.26548  65.3%     -   55s
H    0     0                    10988.000000 3871.26548  64.8%     -   56s
     0     0 3887.77591    0 3743 10988.0000 3887.77591  64.6%     -   65s
     0     0 3892.68735    0 3747 10988.0000 3892.68735  64.6%     -   70s
     0     0 3894.50893    0 3766 10988.0000 3894.50893  64.6%     -   75s
     0     0 3895.45571    0 3787 10988.0000 3895.45571  64.5%     -   77s
     0     0 3895.62672    0 3771 10988.0000 3895.62672  64.5%     -   80s
     0     0 3896.05260    0 3794 10988.0000 3896.05260  64.5%     -   82s
     0     0 3896.28067    0 3822 10988.0000 3896.28067  64.5%     -   84s
     0     0 3896.28943    0 3848 10988.0000 3896.28943  64.5%     -   84s
     0     0 3925.10715    0 4505 10988.0000 3925.10715  64.3%     -   99s

Cutting planes:
  Gomory: 5
  Cover: 1750
  Implied bound: 183
  Clique: 679
  MIR: 109
  StrongCG: 37
  Flow cover: 115
  GUB cover: 1
  Zero half: 8
  Network: 1
  Relax-and-lift: 12

Explored 1 nodes (107535 simplex iterations) in 100.04 seconds (100.58 work units)
Thread count was 12 (of 12 available processors)

Solution count 10: 10988 11145 11257 ... 14664

Time limit reached
Best objective 1.098800000000e+04, best bound 3.926000000000e+03, gap 64.2701%
